p cnf 13 39
-13 -10 5 0
-13 9 3 0
13 -8 6 0
13 -7 5 0
13 -7 3 0
-13 6 -4 0
-13 -6 -4 0
-13 -4 2 0
-13 -3 -1 0
12 10 -6 0
-12 8 7 0
12 6 -1 0
-12 5 2 0
12 5 -1 0
11 10 9 0
-11 10 -8 0
11 9 1 0
11 -8 3 0
-11 -8 1 0
-11 7 -4 0
-11 6 4 0
-11 -6 3 0
11 -5 -4 0
11 -4 -2 0
10 8 7 0
10 -8 3 0
-10 -7 -4 0
-10 -7 -1 0
9 8 7 0
9 6 4 0
-9 -5 -3 0
9 -2 -1 0
8 -3 -2 0
7 5 -2 0
7 2 -1 0
-6 -4 -3 0
6 4 -1 0
-6 -2 1 0
5 -4 3 0
